c FILE /home/rafael/Documents/HappySet/MIHS/inputs/happygen/output/graph_d_regular_k10_p0.1_v100_20241127_084109.txt
c SOURCE This is a d-regular graph formed for the happy graph colouring problem.
c DESCRIPTION It was generated using the problem generator of Rhyd Lewis
c
c GRAPH STATS
c Seed                             = -116118667
c Number of Nodes                  = 100
c Number of colours k              = 10
c Number of pre-assignments        = 10
c Degree of all vertices           = 6
c Density                          = 0.0606061
c 
c The degrees of nodes 1 to 100, respectively, are as follows 
c [6, 6, 6, 6, 6, 6, 6, 6, 6, 6, 6, 6, 6, 6, 6, 6, 6, 6, 6, 6, 6, 6, 6, 6, 6, 6, 
c  6, 6, 6, 6, 6, 6, 6, 6, 6, 6, 6, 6, 6, 6, 6, 6, 6, 6, 6, 6, 6, 6, 6, 6, 6, 
c  6, 6, 6, 6, 6, 6, 6, 6, 6, 6, 6, 6, 6, 6, 6, 6, 6, 6, 6, 6, 6, 6, 6, 6, 6, 
c  6, 6, 6, 6, 6, 6, 6, 6, 6, 6, 6, 6, 6, 6, 6, 6, 6, 6, 6, 6, 6, 6, 6, 6] 
c  
p edge 100 300 10
e 1 20
e 1 21
e 1 50
e 1 68
e 1 69
e 1 89
e 2 10
e 2 29
e 2 69
e 2 74
e 2 77
e 2 86
e 3 41
e 3 51
e 3 53
e 3 64
e 3 73
e 3 77
e 4 43
e 4 58
e 4 66
e 4 76
e 4 84
e 4 87
e 5 6
e 5 11
e 5 16
e 5 49
e 5 63
e 5 92
e 6 8
e 6 48
e 6 60
e 6 71
e 6 91
e 7 9
e 7 23
e 7 26
e 7 50
e 7 65
e 7 68
e 8 12
e 8 16
e 8 31
e 8 69
e 8 75
e 9 24
e 9 41
e 9 56
e 9 65
e 9 81
e 10 55
e 10 56
e 10 62
e 10 65
e 10 71
e 11 12
e 11 27
e 11 41
e 11 87
e 11 94
e 12 13
e 12 54
e 12 59
e 12 89
e 13 19
e 13 26
e 13 38
e 13 45
e 13 99
e 14 20
e 14 26
e 14 28
e 14 40
e 14 44
e 14 76
e 15 27
e 15 46
e 15 49
e 15 70
e 15 93
e 15 99
e 16 34
e 16 50
e 16 87
e 16 97
e 17 35
e 17 50
e 17 76
e 17 86
e 17 88
e 17 91
e 18 44
e 18 59
e 18 75
e 18 78
e 18 79
e 18 98
e 19 33
e 19 43
e 19 46
e 19 59
e 19 64
e 20 34
e 20 43
e 20 96
e 20 99
e 21 31
e 21 37
e 21 62
e 21 63
e 21 100
e 22 28
e 22 51
e 22 80
e 22 82
e 22 90
e 22 98
e 23 32
e 23 45
e 23 70
e 23 82
e 23 88
e 24 49
e 24 53
e 24 69
e 24 81
e 24 85
e 25 47
e 25 50
e 25 73
e 25 76
e 25 84
e 25 94
e 26 36
e 26 44
e 26 62
e 27 56
e 27 66
e 27 83
e 27 88
e 28 34
e 28 40
e 28 83
e 28 91
e 29 38
e 29 74
e 29 75
e 29 80
e 29 96
e 30 31
e 30 35
e 30 40
e 30 54
e 30 67
e 30 83
e 31 78
e 31 91
e 31 96
e 32 38
e 32 46
e 32 49
e 32 77
e 32 99
e 33 34
e 33 54
e 33 71
e 33 92
e 33 98
e 34 49
e 34 82
e 35 39
e 35 61
e 35 67
e 35 80
e 36 51
e 36 53
e 36 55
e 36 86
e 36 95
e 37 48
e 37 61
e 37 63
e 37 71
e 37 82
e 38 52
e 38 88
e 38 90
e 39 42
e 39 57
e 39 85
e 39 87
e 39 100
e 40 54
e 40 71
e 40 83
e 41 58
e 41 60
e 41 65
e 42 46
e 42 59
e 42 80
e 42 88
e 42 93
e 43 48
e 43 57
e 43 97
e 44 45
e 44 63
e 44 75
e 45 47
e 45 52
e 45 89
e 46 77
e 46 90
e 47 48
e 47 68
e 47 91
e 47 95
e 48 61
e 48 77
e 49 67
e 50 72
e 51 53
e 51 72
e 51 100
e 52 62
e 52 88
e 52 89
e 52 91
e 53 69
e 53 73
e 54 62
e 54 81
e 55 68
e 55 72
e 55 80
e 55 86
e 56 73
e 56 79
e 56 85
e 57 73
e 57 87
e 57 95
e 57 98
e 58 65
e 58 71
e 58 77
e 58 99
e 59 73
e 59 98
e 60 66
e 60 81
e 60 83
e 60 93
e 61 63
e 61 92
e 61 98
e 62 92
e 63 93
e 64 86
e 64 93
e 64 94
e 64 96
e 65 74
e 66 72
e 66 74
e 66 90
e 67 80
e 67 81
e 67 84
e 68 96
e 68 100
e 69 70
e 70 72
e 70 89
e 70 92
e 72 95
e 74 85
e 74 95
e 75 79
e 75 86
e 76 78
e 76 95
e 78 84
e 78 90
e 78 97
e 79 82
e 79 97
e 79 99
e 81 87
e 82 90
e 83 89
e 84 94
e 84 97
e 85 96
e 85 100
e 92 94
e 93 100
e 94 97
n 6 5
n 10 2
n 20 7
n 47 1
n 58 6
n 59 3
n 67 8
n 69 4
n 78 9
n 88 10
